p cnf 43 143
-3 2 -4 0
3 -2 -4 0
-3 -2 4 0
3 2 4 0
5 4 0
5 2 0
-4 -2 -5 0
-6 -2 0
-6 5 0
2 -5 6 0
-8 6 0
-8 -7 0
-6 7 8 0
9 -1 0
9 8 0
1 -8 -9 0
-10 -1 -11 0
10 1 -11 0
-10 1 11 0
10 -1 11 0
4 -11 -12 0
-4 11 -12 0
4 11 12 0
-4 -11 12 0
13 7 0
13 -10 0
-7 10 -13 0
-13 -14 -15 0
13 14 -15 0
-13 14 15 0
13 -14 15 0
12 -15 -16 0
-12 15 -16 0
12 15 16 0
-12 -15 16 0
-17 9 0
-17 -16 0
-9 16 17 0
-18 -10 0
-18 7 0
10 -7 18 0
19 -4 0
19 -11 0
4 11 -19 0
-18 -19 -20 0
18 19 -20 0
-18 19 20 0
18 -19 20 0
-21 17 0
-21 20 0
-17 -20 21 0
2 -1 -22 0
-2 1 -22 0
2 1 22 0
-2 -1 22 0
23 -18 0
23 18 0
-24 -22 0
-24 23 0
22 -23 24 0
3 -7 -25 0
-3 7 -25 0
3 7 25 0
-3 -7 25 0
-26 24 0
-26 25 0
-24 -25 26 0
-27 21 0
-27 -26 0
-21 26 27 0
-29 28 0
-29 3 0
-28 -3 29 0
-7 -11 -30 0
7 11 -30 0
-7 11 30 0
7 -11 30 0
-31 29 0
-31 -30 0
-29 30 31 0
-1 -5 -32 0
1 5 -32 0
-1 5 32 0
1 -5 32 0
34 -33 0
34 -7 0
33 7 -34 0
-36 -34 0
-36 -35 0
34 35 36 0
37 36 0
37 28 0
-36 -28 -37 0
37 1 -38 0
-37 -1 -38 0
37 -1 38 0
-37 1 38 0
40 -38 0
40 39 0
38 -39 -40 0
41 32 0
41 40 0
-32 -40 -41 0
42 31 0
42 -41 0
-31 41 -42 0
43 27 0
43 42 0
-27 -42 -43 0
-1 -7 0
-6 42 14 0
-34 38 -32 36 0
-30 9 6 43 18 0
-6 -12 7 37 13 0
2 23 -40 -35 -32 0
37 -16 17 -40 0
31 4 0
4 -31 -34 0
-32 12 14 0
42 38 0
-21 -19 30 0
42 -9 -30 11 0
30 -5 -21 -1 0
-42 -40 -38 0
-31 -28 0
32 20 9 -6 42 -31 0
18 -34 -36 0
-12 -9 35 13 0
15 -3 17 -2 0
-38 10 -28 43 40 0
-13 -24 -30 -4 0
-41 38 -14 16 -33 9 0
-17 -18 -26 0
-23 21 -9 -31 18 -22 0
15 -39 -3 0
10 -14 30 9 0
-3 20 0
9 -25 21 20 -6 0
-22 24 5 0
16 6 8 -29 -33 -17 0
-41 -39 0
-23 -42 -3 11 0
43 0
